certificates/rado_a9_c46_N17.cnf
c Rad2 upper bound instance: x1 + 9*x2 - x3 = 46, interval [1,17]
p cnf 17 64
1 6 9 0
-1 -6 -9 0
1 2 5 0
-1 -2 -5 0
2 6 10 0
-2 -6 -10 0
2 3 5 0
-2 -3 -5 0
3 6 11 0
-3 -6 -11 0
3 4 5 0
-3 -4 -5 0
4 6 12 0
-4 -6 -12 0
4 5 0
-4 -5 0
5 6 13 0
-5 -6 -13 0
5 6 0
-5 -6 0
6 14 0
-6 -14 0
5 6 7 0
-5 -6 -7 0
6 7 15 0
-6 -7 -15 0
5 7 8 0
-5 -7 -8 0
6 8 16 0
-6 -8 -16 0
5 8 9 0
-5 -8 -9 0
6 9 17 0
-6 -9 -17 0
5 9 10 0
-5 -9 -10 0
1 4 11 0
-1 -4 -11 0
5 10 11 0
-5 -10 -11 0
2 4 12 0
-2 -4 -12 0
5 11 12 0
-5 -11 -12 0
3 4 13 0
-3 -4 -13 0
5 12 13 0
-5 -12 -13 0
4 14 0
-4 -14 0
5 13 14 0
-5 -13 -14 0
4 5 15 0
-4 -5 -15 0
5 14 15 0
-5 -14 -15 0
4 6 16 0
-4 -6 -16 0
5 15 16 0
-5 -15 -16 0
4 7 17 0
-4 -7 -17 0
5 16 17 0
-5 -16 -17 0
