certificates/rado_a9_c46_N17.drat
-16 -17 0
d -16 -5 -17 0
-6 -17 0
-17 0
6 0
-5 0
-14 0
4 0
16 0
15 0
13 0
0
